1 13 22 34 35 47 56 65 57 46 45 48 55 58 66 59 60 54 43 44 36 33 24 23 12 11 2 10 14 21 25 26 9 20 37 49 53 67 61 62 68 63 64 51 39 40 38 50 52 41 42 32 19 15 3 8 27 28 31 29 30 17 5 6 16 18 7 4 133 131 132 120 107 108 119 121 130 129 134 122 118 105 110 109 106 99 97 98 86 73 74 69 85 87 96 75 76 95 100 88 84 70 83 94 77 78 71 79 82 89 93 101 92 91 80 72 81 90 102 103 115 124 114 113 104 112 111 117 128 127 135 123 116 126 125 136
